12 48 6 10
15 9 15 19 12 18 5 2 5 8 14 5 3 9 1 14 19 17 4 16 6 4 12 11 8 13 4 16 13 5 2 10 4 15 16 12 9 11 6 13 12 9 1 18 4 10 5 7 
9.74 11.15 4.03 9.15 11.02 1.87 4.74 14.01 13.04 5.14 14.45 10.31 3.01 0.55 7.79 9.96 3.01 1.82 11.69 1.49 4.27 15.31 11.09 13.96 0.43 0.85 0.09 11.54 8.14 10.69 8.64 12.76 0.8 14.54 3 12.18 4.53 5.95 8.62 13.64 12.95 12.42 11.24 10.78 9.07 11.64 3.98 13.25 
4.65 10.51 3.85 3.08 7.2 0.17 8.76 15.49 9.77 1.61 9.58 2.97 8.53 12.19 14.31 4.06 8.51 14.21 4.87 13.05 15.96 13.88 10.07 8.18 15.89 14.43 4.97 2.04 8.61 1.33 7.38 15.37 3.66 0.27 4.11 4.26 15.39 11.08 5.24 13.65 13.94 7 7.74 8.97 13.42 5.05 10.14 13.02 
13.72 6.44 3.5 15.33 3.95 9.57 9.8 13.03 4.51 12.06 14.66 2.24 7.82 13.14 3.17 6.09 9.09 2.37 9.57 15.3 14.9 11.93 3.34 3.77 13.04 9.61 14.53 4.11 13.71 13.13 1.37 7.91 10.88 3.44 9.89 14.58 9.52 10.59 10.53 12.09 12.01 8.32 8.8 11 7.13 11.69 10.73 13.47 
11.93 16 11.62 11.96 9.8 13.79 14.49 8.62 6.85 11.63 6.3 4.75 8.63 11.21 5.34 6.96 14.66 9.08 3.34 13.39 11.34 8.31 14.25 3.87 14.19 7.23 6.67 10.6 6.67 10.49 1.95 13.51 9.83 5.78 0.05 3.6 6.57 11.36 9.58 5.59 4.85 10.08 13.37 11.42 6.78 10.38 5.65 2.06 
2.73 11.56 2.34 11.32 9.98 11.27 12.96 4.63 11.84 9 10.55 2.19 2.87 15.18 7 9.12 15.04 15.88 0.87 4 2.02 9.64 9.01 5.71 11.79 8.54 4.75 4.89 7.45 9.94 14.57 5.36 7.2 8.26 2.01 3.49 13.42 7.31 14.14 2.07 14.68 0.53 4.63 2.11 10.66 4.49 3.83 0.85 
0.9 6.7 15.6 8.8 14.32 5.55 7.08 12.26 7.49 0.96 15 1.05 5.35 7.22 7.83 0.55 6.9 15.97 1.18 5.53 5.05 3.39 9.01 6.62 0.31 11.29 6.67 12.58 11.47 9.15 0.21 3.9 0 8.26 11.38 5.18 7.08 10.87 8.27 9.06 10.19 6.59 11.43 2.33 5.01 0.1 14.23 8 
8 8 8 8 8 8 8 8 8 8 8 8 8 8 8 8 8 8 8 8 8 8 8 8 8 8 8 8 8 8 8 8 8 8 8 8 8 8 8 8 8 8 8 8 8 8 8 8 
9.36 0.79 4.88 3.42 5.07 14.54 5.45 0.51 8.78 12.5 14.02 15.39 3.52 7.74 5.12 14.53 6.58 6.95 9.95 9.88 12.93 3.75 0.57 4.92 4.53 8.83 1.72 1.33 4.91 6.68 1.5 11.81 5.13 4.31 6.83 7.92 0.16 15.91 11.74 2.93 14.94 6.85 8.77 11.69 13.02 12.41 5.65 9 
4.62 15.22 6.85 3.23 3.3 13.09 15.5 3.77 12.26 2.99 0.63 13.37 5.23 4.41 11.96 7.22 0.77 6.87 4.69 9.18 14.31 9.98 11.77 11.81 15.79 7.96 3.69 7.83 14.17 7.36 11.2 13.02 8.93 7.38 13.88 8.05 9.48 12.56 8.75 0.4 10.38 9.42 5.82 10.99 4.01 1.61 4.3 1.06 
9.5 13.78 5.9 12.2 14.16 12.35 14.63 10.02 8 3.33 3.59 13.17 0.76 1.16 15.82 1.96 0.22 12.31 8.37 10.07 13.41 10.11 9.45 13.41 8.18 0.27 5.05 6.9 7.75 10.99 15.18 7.18 10.1 11.17 15.66 11.61 13.55 15.9 7.39 15.76 3.23 14.85 5.43 10.13 5.92 5.53 3.86 1.49 
1.97 14.23 2.39 6.04 8.46 7.71 2.1 0.87 3.82 10.09 1.08 9.65 7.33 2.93 6.87 11.15 15.78 0.68 12.59 10.36 7.43 2.94 10.36 3.18 3.29 9.17 5.52 4.25 2.69 7.86 0.06 13.35 14.79 8.29 13.66 1.26 10.6 8.19 7.67 5.59 1.92 9.01 8.89 0.58 7.8 14.38 5.69 9.93 
15.75 9.58 7.99 2.17 7.55 7.65 10.36 3.8 9.23 5.56 5.64 4.55 14.98 4.1 9.88 9.03 6.71 2.9 10.71 5.86 13.43 3.18 3.59 0.1 2.35 13.24 14.42 5.46 13.54 4.54 8.2 14.77 15.57 1.04 12.16 9.46 8.31 0.68 6.06 14.17 4.36 7.65 14.87 3.7 13.99 6.06 1.47 8.03 
1 1 1 1 1 1 1 1 1 1 1 1 1 1 1 1 1 1 1 1 1 1 1 1 1 1 1 1 1 1 1 1 1 1 1 1 1 1 1 1 1 1 1 1 1 1 1 1 
1 1 1 1 1 1 1 1 1 1 1 1 1 1 1 1 1 1 1 1 1 1 1 1 1 1 1 1 1 1 1 1 1 1 1 1 1 1 1 1 1 1 1 1 1 1 1 1 
1 1 1 1 1 1 1 1 1 1 1 1 1 1 1 1 1 1 1 1 1 1 1 1 1 1 1 1 1 1 1 1 1 1 1 1 1 1 1 1 1 1 1 1 1 1 1 1 
1 1 1 1 1 1 1 1 1 1 1 1 1 1 1 1 1 1 1 1 1 1 1 1 1 1 1 1 1 1 1 1 1 1 1 1 1 1 1 1 1 1 1 1 1 1 1 1 
1 1 1 1 1 1 1 1 1 1 1 1 1 1 1 1 1 1 1 1 1 1 1 1 1 1 1 1 1 1 1 1 1 1 1 1 1 1 1 1 1 1 1 1 1 1 1 1 
1 1 1 1 1 1 1 1 1 1 1 1 1 1 1 1 1 1 1 1 1 1 1 1 1 1 1 1 1 1 1 1 1 1 1 1 1 1 1 1 1 1 1 1 1 1 1 1 
1 1 1 1 1 1 1 1 1 1 1 1 1 1 1 1 1 1 1 1 1 1 1 1 1 1 1 1 1 1 1 1 1 1 1 1 1 1 1 1 1 1 1 1 1 1 1 1 
1 1 1 1 1 1 1 1 1 1 1 1 1 1 1 1 1 1 1 1 1 1 1 1 1 1 1 1 1 1 1 1 1 1 1 1 1 1 1 1 1 1 1 1 1 1 1 1 
1 1 1 1 1 1 1 1 1 1 1 1 1 1 1 1 1 1 1 1 1 1 1 1 1 1 1 1 1 1 1 1 1 1 1 1 1 1 1 1 1 1 1 1 1 1 1 1 
1 1 1 1 1 1 1 1 1 1 1 1 1 1 1 1 1 1 1 1 1 1 1 1 1 1 1 1 1 1 1 1 1 1 1 1 1 1 1 1 1 1 1 1 1 1 1 1 
1 1 1 1 1 1 1 1 1 1 1 1 1 1 1 1 1 1 1 1 1 1 1 1 1 1 1 1 1 1 1 1 1 1 1 1 1 1 1 1 1 1 1 1 1 1 1 1 
1 1 1 1 1 1 1 1 1 1 1 1 1 1 1 1 1 1 1 1 1 1 1 1 1 1 1 1 1 1 1 1 1 1 1 1 1 1 1 1 1 1 1 1 1 1 1 1 
0.01 0.01 0.01 0.01 0.01 0.01 0.01 0.01 0.01 0.01 0.01 0.01 0.01 0.01 0.01 0.01 0.01 0.01 0.01 0.01 0.01 0.01 0.01 0.01 0.01 0.01 0.01 0.01 0.01 0.01 0.01 0.01 0.01 0.01 0.01 0.01 0.01 0.01 0.01 0.01 0.01 0.01 0.01 0.01 0.01 0.01 0.01 0.01 
0.02 0.02 0.02 0.02 0.02 0.02 0.02 0.02 0.02 0.02 0.02 0.02 0.02 0.02 0.02 0.02 0.02 0.02 0.02 0.02 0.02 0.02 0.02 0.02 0.02 0.02 0.02 0.02 0.02 0.02 0.02 0.02 0.02 0.02 0.02 0.02 0.02 0.02 0.02 0.02 0.02 0.02 0.02 0.02 0.02 0.02 0.02 0.02 
0.03 0.03 0.03 0.03 0.03 0.03 0.03 0.03 0.03 0.03 0.03 0.03 0.03 0.03 0.03 0.03 0.03 0.03 0.03 0.03 0.03 0.03 0.03 0.03 0.03 0.03 0.03 0.03 0.03 0.03 0.03 0.03 0.03 0.03 0.03 0.03 0.03 0.03 0.03 0.03 0.03 0.03 0.03 0.03 0.03 0.03 0.03 0.03 
0.04 0.04 0.04 0.04 0.04 0.04 0.04 0.04 0.04 0.04 0.04 0.04 0.04 0.04 0.04 0.04 0.04 0.04 0.04 0.04 0.04 0.04 0.04 0.04 0.04 0.04 0.04 0.04 0.04 0.04 0.04 0.04 0.04 0.04 0.04 0.04 0.04 0.04 0.04 0.04 0.04 0.04 0.04 0.04 0.04 0.04 0.04 0.04 
0.05 0.05 0.05 0.05 0.05 0.05 0.05 0.05 0.05 0.05 0.05 0.05 0.05 0.05 0.05 0.05 0.05 0.05 0.05 0.05 0.05 0.05 0.05 0.05 0.05 0.05 0.05 0.05 0.05 0.05 0.05 0.05 0.05 0.05 0.05 0.05 0.05 0.05 0.05 0.05 0.05 0.05 0.05 0.05 0.05 0.05 0.05 0.05 
0.06 0.06 0.06 0.06 0.06 0.06 0.06 0.06 0.06 0.06 0.06 0.06 0.06 0.06 0.06 0.06 0.06 0.06 0.06 0.06 0.06 0.06 0.06 0.06 0.06 0.06 0.06 0.06 0.06 0.06 0.06 0.06 0.06 0.06 0.06 0.06 0.06 0.06 0.06 0.06 0.06 0.06 0.06 0.06 0.06 0.06 0.06 0.06 
0.07 0.07 0.07 0.07 0.07 0.07 0.07 0.07 0.07 0.07 0.07 0.07 0.07 0.07 0.07 0.07 0.07 0.07 0.07 0.07 0.07 0.07 0.07 0.07 0.07 0.07 0.07 0.07 0.07 0.07 0.07 0.07 0.07 0.07 0.07 0.07 0.07 0.07 0.07 0.07 0.07 0.07 0.07 0.07 0.07 0.07 0.07 0.07 
0.2 0.2 0.2 0.2 0.2 0.2 0.2 0.2 0.2 0.2 0.2 0.2 0.2 0.2 0.2 0.2 0.2 0.2 0.2 0.2 0.2 0.2 0.2 0.2 0.2 0.2 0.2 0.2 0.2 0.2 0.2 0.2 0.2 0.2 0.2 0.2 0.2 0.2 0.2 0.2 0.2 0.2 0.2 0.2 0.2 0.2 0.2 0.2 
0.4 0.4 0.4 0.4 0.4 0.4 0.4 0.4 0.4 0.4 0.4 0.4 0.4 0.4 0.4 0.4 0.4 0.4 0.4 0.4 0.4 0.4 0.4 0.4 0.4 0.4 0.4 0.4 0.4 0.4 0.4 0.4 0.4 0.4 0.4 0.4 0.4 0.4 0.4 0.4 0.4 0.4 0.4 0.4 0.4 0.4 0.4 0.4 
0.6 0.6 0.6 0.6 0.6 0.6 0.6 0.6 0.6 0.6 0.6 0.6 0.6 0.6 0.6 0.6 0.6 0.6 0.6 0.6 0.6 0.6 0.6 0.6 0.6 0.6 0.6 0.6 0.6 0.6 0.6 0.6 0.6 0.6 0.6 0.6 0.6 0.6 0.6 0.6 0.6 0.6 0.6 0.6 0.6 0.6 0.6 0.6 
0.8 0.8 0.8 0.8 0.8 0.8 0.8 0.8 0.8 0.8 0.8 0.8 0.8 0.8 0.8 0.8 0.8 0.8 0.8 0.8 0.8 0.8 0.8 0.8 0.8 0.8 0.8 0.8 0.8 0.8 0.8 0.8 0.8 0.8 0.8 0.8 0.8 0.8 0.8 0.8 0.8 0.8 0.8 0.8 0.8 0.8 0.8 0.8 
1 1 1 1 1 1 1 1 1 1 1 1 1 1 1 1 1 1 1 1 1 1 1 1 1 1 1 1 1 1 1 1 1 1 1 1 1 1 1 1 1 1 1 1 1 1 1 1 
